NAME : sim51.76144.tour
COMMENT : Length = 76144
COMMENT : Found by LKH [Keld Helsgaun] Wed Aug 29 08:55:44 2018
TYPE : TOUR
DIMENSION : 51
TOUR_SECTION
1
28
18
24
45
47
17
5
6
9
8
21
39
29
49
7
35
32
38
33
20
2
27
30
13
42
16
46
43
22
36
12
10
37
11
31
26
15
44
40
25
4
51
41
3
34
48
14
23
19
50
-1
EOF
